33D32945 STP File, STP Format Version 1.0

SECTION Comment
Name    "cancer13_8D"
Creator "S. A. Chowdhury, A. A. Schaffer, R. Schwartz"
Problem "Rectilinear Steiner Minimum Tree"
Remark  "Derived from a problem in cancer genomics and from a breast cancer data set"
END

Section Graph
Nodes 70
END

SECTION Coordinates
DDDDDDDD 1 2 2 2 2 2 2 2 2 
DDDDDDDD 2 2 2 2 2 1 2 2 2 
DDDDDDDD 3 3 1 1 2 1 2 1 2 
DDDDDDDD 4 3 1 2 2 1 2 2 2 
DDDDDDDD 5 3 2 1 2 0 2 1 2 
DDDDDDDD 6 3 2 1 2 1 0 1 0 
DDDDDDDD 7 3 2 2 2 1 2 2 2 
DDDDDDDD 8 3 2 2 2 1 3 2 2 
DDDDDDDD 9 4 1 2 2 1 1 2 2 
DDDDDDDD 10 4 2 2 2 0 1 2 2 
DDDDDDDD 11 4 2 2 2 0 2 2 2 
DDDDDDDD 12 4 2 2 2 1 1 2 2 
DDDDDDDD 13 4 2 2 2 1 2 1 2 
DDDDDDDD 14 4 2 1 2 1 2 2 2 
DDDDDDDD 15 4 2 2 3 0 2 2 2 
DDDDDDDD 16 4 4 1 2 1 3 2 2 
DDDDDDDD 17 2 1 2 2 1 2 2 2 
DDDDDDDD 18 2 2 0 3 1 1 2 1 
DDDDDDDD 19 2 2 1 2 0 2 1 2 
DDDDDDDD 20 3 2 2 2 1 2 2 1 
DDDDDDDD 21 4 2 2 2 1 2 2 2 
DDDDDDDD 22 1 2 2 2 2 2 2 2 
DDDDDDDD 23 2 1 2 2 2 4 2 2 
DDDDDDDD 24 2 2 1 1 2 3 2 2 
DDDDDDDD 25 2 2 1 2 1 3 2 2 
DDDDDDDD 26 2 2 2 1 1 1 2 2 
DDDDDDDD 27 2 2 2 1 1 2 3 2 
DDDDDDDD 28 2 2 2 2 0 2 2 2 
DDDDDDDD 29 2 2 2 2 1 1 2 2 
DDDDDDDD 30 2 2 2 2 1 2 1 2 
DDDDDDDD 31 2 2 2 2 1 4 2 2 
DDDDDDDD 32 2 2 2 2 1 5 2 2 
DDDDDDDD 33 2 2 2 2 2 1 2 2 
DDDDDDDD 34 2 2 2 2 2 2 1 2 
DDDDDDDD 35 2 2 2 2 2 3 2 2 
DDDDDDDD 36 2 2 2 3 1 2 2 2 
DDDDDDDD 37 2 2 2 3 2 3 2 2 
DDDDDDDD 38 2 2 2 4 2 2 2 2 
DDDDDDDD 39 2 2 3 2 0 2 2 2 
DDDDDDDD 40 2 2 3 2 1 1 2 2 
DDDDDDDD 41 3 1 2 1 0 2 2 2 
DDDDDDDD 42 3 1 2 2 0 0 2 3 
DDDDDDDD 43 3 2 2 2 0 2 1 2 
DDDDDDDD 44 3 2 2 2 1 1 2 2 
DDDDDDDD 45 3 2 2 2 1 4 2 2 
DDDDDDDD 46 3 2 2 2 2 2 2 2 
DDDDDDDD 47 3 2 2 2 2 3 2 2 
DDDDDDDD 48 3 2 2 3 1 2 2 2 
DDDDDDDD 49 3 2 4 2 1 3 3 2 
DDDDDDDD 50 3 3 2 2 1 1 2 2 
DDDDDDDD 51 4 1 2 2 0 2 2 2 
DDDDDDDD 52 4 1 2 2 1 2 2 2 
DDDDDDDD 53 4 1 2 2 1 3 2 2 
DDDDDDDD 54 4 1 2 2 2 2 2 2 
DDDDDDDD 55 4 2 1 2 1 3 2 2 
DDDDDDDD 56 4 2 2 1 1 2 2 2 
DDDDDDDD 57 4 2 2 2 1 2 2 1 
DDDDDDDD 58 4 2 2 2 1 2 3 2 
DDDDDDDD 59 4 2 2 2 1 3 2 2 
DDDDDDDD 60 4 2 2 2 2 2 2 2 
DDDDDDDD 61 4 2 3 2 1 1 1 2 
DDDDDDDD 62 4 2 3 2 1 2 2 2 
DDDDDDDD 63 4 2 3 2 1 2 2 3 
DDDDDDDD 64 4 3 2 2 1 2 2 2 
DDDDDDDD 65 5 2 3 2 1 2 2 2 
DDDDDDDD 66 5 2 4 2 1 2 2 2 
DDDDDDDD 67 3 2 3 2 2 3 2 2 
DDDDDDDD 68 4 2 2 2 1 4 2 2 
DDDDDDDD 69 2 2 2 3 2 1 2 2 
DDDDDDDD 70 3 1 3 2 1 3 2 2 
END

EOF
